# 35232
param k := 6;
param n := 50;
param s := 1;
set E :=  (0,1) (0,12) (0,23) (0,45) (1,20) (1,21) (1,34) (2,46) (3,10) (3,16) (3,36) (3,39) (4,15) (5,7) (5,27) (6,10) (6,23) (6,30) (6,38) (7,29) (7,47) (8,23) (9,19) (10,49) (11,34) (11,41) (12,15) (13,21) (14,40) (16,24) (17,32) (18,29) (18,33) (19,44) (22,42) (25,37) (26,36) (27,31) (28,40) (28,45) (32,35) (32,44) (32,45) (34,42) (34,46) (37,43) (38,48) (39,46) (43,44) (45,47);